(declare-const x0 Real)
(assert (<= 0.0 x0))
(declare-const x1 Real)
(assert (<= 0.0 x1))
(declare-const x2 Real)
(assert (<= 0.0 x2))
(declare-const x3 Real)
(assert (<= 0.0 x3))
(declare-const x4 Real)
(assert (<= 0.0 x4))
(declare-const x5 Real)
(assert (<= 0.0 x5))
(declare-const x6 Real)
(assert (<= 0.0 x6))
(declare-const x7 Real)
(assert (<= 0.0 x7))
(declare-const x8 Real)
(assert (<= 0.0 x8))
(declare-const x9 Real)
(assert (<= 0.0 x9))
(declare-const x10 Real)
(assert (<= 0.0 x10))
(declare-const x11 Real)
(assert (<= 0.0 x11))
(declare-const x12 Real)
(assert (<= 0.0 x12))
(declare-const x13 Real)
(assert (<= 0.0 x13))
(declare-const x14 Real)
(assert (<= 0.0 x14))
(declare-const x15 Real)
(assert (<= 0.0 x15))

(assert (= (+ (* 0.220000 x0) (* 0.200000 x1) (* 0.190000 x2) (* 0.250000 x3) (* 0.150000 x4) (* 0.110000 x5) (* 0.120000 x6) (* 0.130000 x7) (* 1.0 x8)) 2.500000))
(assert (= (+ (* (- 1.460000) x0) (* (- 1.300000) x2) (* 1.820000 x3) (* (- 1.150000) x4) (* 0.800000 x6) (* 1.0 x9)) 1.100000))
(assert (= (+ (* 1.290000 x0) (* (- 0.890000) x1) (* (- 1.160000) x4) (* (- 0.960000) x5) (* (- 0.490000) x7) (* 1.0 x10)) (- 3.100000)))
(assert (= (+ (* (- 1.100000) x0) (* (- 1.060000) x1) (* 0.950000 x2) (* (- 0.540000) x3) (* (- 1.780000) x5) (* (- 0.410000) x6) (* 1.0 x11)) (- 3.500000)))
(assert (= (+ (* (- 1.430000) x3) (* 1.510000 x4) (* 0.590000 x5) (* (- 0.330000) x6) (* (- 0.430000) x7) (* 1.0 x12)) 1.300000))
(assert (= (+ (* (- 1.720000) x1) (* (- 0.330000) x2) (* 1.620000 x4) (* 1.240000 x5) (* 0.210000 x6) (* (- 0.260000) x7) (* 1.0 x13)) 2.100000))
(assert (= (+ (* 1.120000 x0) (* 0.310000 x3) (* 1.120000 x6) (* (- 0.360000) x8) (* 1.0 x14)) 2.300000))
(assert (= (+ (* 0.450000 x1) (* 0.260000 x2) (* (- 1.100000) x3) (* 0.580000 x4) (* (- 1.030000) x6) (* 0.100000 x7) (* 1.0 x15)) (- 1.500000)))

(minimize
	(+ (* (+ 1.0 (^ x0 2.0) x0) (+ 1.0 (^ x0 2.0) x0)) (* (+ 1.0 (^ x0 2.0) x0) (+ 1.0 (^ x3 2.0) x3)) (* (+ 1.0 (^ x0 2.0) x0) (+ 1.0 (^ x6 2.0) x6)) (* (+ 1.0 (^ x0 2.0) x0) (+ 1.0 (^ x7 2.0) x7)) (* (+ 1.0 (^ x0 2.0) x0) (+ 1.0 (^ x15 2.0) x15)) (* (+ 1.0 (^ x1 2.0) x1) (+ 1.0 (^ x1 2.0) x1)) (* (+ 1.0 (^ x1 2.0) x1) (+ 1.0 (^ x2 2.0) x2)) (* (+ 1.0 (^ x1 2.0) x1) (+ 1.0 (^ x6 2.0) x6)) (* (+ 1.0 (^ x1 2.0) x1) (+ 1.0 (^ x9 2.0) x9)) (* (+ 1.0 (^ x2 2.0) x2) (+ 1.0 (^ x2 2.0) x2)) (* (+ 1.0 (^ x2 2.0) x2) (+ 1.0 (^ x6 2.0) x6)) (* (+ 1.0 (^ x2 2.0) x2) (+ 1.0 (^ x8 2.0) x8)) (* (+ 1.0 (^ x2 2.0) x2) (+ 1.0 (^ x9 2.0) x9)) (* (+ 1.0 (^ x2 2.0) x2) (+ 1.0 (^ x13 2.0) x13)) (* (+ 1.0 (^ x3 2.0) x3) (+ 1.0 (^ x3 2.0) x3)) (* (+ 1.0 (^ x3 2.0) x3) (+ 1.0 (^ x6 2.0) x6)) (* (+ 1.0 (^ x3 2.0) x3) (+ 1.0 (^ x10 2.0) x10)) (* (+ 1.0 (^ x3 2.0) x3) (+ 1.0 (^ x14 2.0) x14)) (* (+ 1.0 (^ x4 2.0) x4) (+ 1.0 (^ x4 2.0) x4)) (* (+ 1.0 (^ x4 2.0) x4) (+ 1.0 (^ x5 2.0) x5)) (* (+ 1.0 (^ x4 2.0) x4) (+ 1.0 (^ x9 2.0) x9)) (* (+ 1.0 (^ x4 2.0) x4) (+ 1.0 (^ x11 2.0) x11)) (* (+ 1.0 (^ x4 2.0) x4) (+ 1.0 (^ x15 2.0) x15)) (* (+ 1.0 (^ x5 2.0) x5) (+ 1.0 (^ x5 2.0) x5)) (* (+ 1.0 (^ x5 2.0) x5) (+ 1.0 (^ x7 2.0) x7)) (* (+ 1.0 (^ x5 2.0) x5) (+ 1.0 (^ x14 2.0) x14)) (* (+ 1.0 (^ x6 2.0) x6) (+ 1.0 (^ x6 2.0) x6)) (* (+ 1.0 (^ x6 2.0) x6) (+ 1.0 (^ x10 2.0) x10)) (* (+ 1.0 (^ x6 2.0) x6) (+ 1.0 (^ x12 2.0) x12)) (* (+ 1.0 (^ x7 2.0) x7) (+ 1.0 (^ x7 2.0) x7)) (* (+ 1.0 (^ x7 2.0) x7) (+ 1.0 (^ x9 2.0) x9)) (* (+ 1.0 (^ x7 2.0) x7) (+ 1.0 (^ x14 2.0) x14)) (* (+ 1.0 (^ x8 2.0) x8) (+ 1.0 (^ x8 2.0) x8)) (* (+ 1.0 (^ x8 2.0) x8) (+ 1.0 (^ x11 2.0) x11)) (* (+ 1.0 (^ x8 2.0) x8) (+ 1.0 (^ x15 2.0) x15)) (* (+ 1.0 (^ x9 2.0) x9) (+ 1.0 (^ x9 2.0) x9)) (* (+ 1.0 (^ x9 2.0) x9) (+ 1.0 (^ x13 2.0) x13)) (* (+ 1.0 (^ x10 2.0) x10) (+ 1.0 (^ x10 2.0) x10)) (* (+ 1.0 (^ x10 2.0) x10) (+ 1.0 (^ x11 2.0) x11)) (* (+ 1.0 (^ x10 2.0) x10) (+ 1.0 (^ x12 2.0) x12)) (* (+ 1.0 (^ x11 2.0) x11) (+ 1.0 (^ x13 2.0) x13)) (* (+ 1.0 (^ x12 2.0) x12) (+ 1.0 (^ x12 2.0) x12)) (* (+ 1.0 (^ x12 2.0) x12) (+ 1.0 (^ x13 2.0) x13)) (* (+ 1.0 (^ x13 2.0) x13) (+ 1.0 (^ x13 2.0) x13)) (* (+ 1.0 (^ x14 2.0) x14) (+ 1.0 (^ x14 2.0) x14)) (* (+ 1.0 (^ x15 2.0) x15) (+ 1.0 (^ x15 2.0) x15)))
)
(check-sat)
(get-objectives)
(exit)

